p cnf 414 3096
1 2 3 0
4 5 6 0
7 8 9 0
10 11 12 0
13 14 15 0
16 17 18 0
19 20 21 0
22 23 24 0
25 26 27 0
28 29 30 0
31 32 33 0
34 35 36 0
37 38 39 0
40 41 42 0
43 44 45 0
46 47 48 0
49 50 51 0
52 53 54 0
55 56 57 0
58 59 60 0
61 62 63 0
64 65 66 0
67 68 69 0
70 71 72 0
73 74 75 0
76 77 78 0
79 80 81 0
82 83 84 0
85 86 87 0
88 89 90 0
91 92 93 0
94 95 96 0
97 98 99 0
100 101 102 0
103 104 105 0
106 107 108 0
109 110 111 0
112 113 114 0
115 116 117 0
118 119 120 0
121 122 123 0
124 125 126 0
127 128 129 0
130 131 132 0
133 134 135 0
136 137 138 0
139 140 141 0
142 143 144 0
145 146 147 0
148 149 150 0
151 152 153 0
154 155 156 0
157 158 159 0
160 161 162 0
163 164 165 0
166 167 168 0
169 170 171 0
172 173 174 0
175 176 177 0
178 179 180 0
181 182 183 0
184 185 186 0
187 188 189 0
190 191 192 0
193 194 195 0
196 197 198 0
199 200 201 0
202 203 204 0
205 206 207 0
208 209 210 0
211 212 213 0
214 215 216 0
217 218 219 0
220 221 222 0
223 224 225 0
226 227 228 0
229 230 231 0
232 233 234 0
235 236 237 0
238 239 240 0
241 242 243 0
244 245 246 0
247 248 249 0
250 251 252 0
253 254 255 0
256 257 258 0
259 260 261 0
262 263 264 0
265 266 267 0
268 269 270 0
271 272 273 0
274 275 276 0
277 278 279 0
280 281 282 0
283 284 285 0
286 287 288 0
289 290 291 0
292 293 294 0
295 296 297 0
298 299 300 0
301 302 303 0
304 305 306 0
307 308 309 0
310 311 312 0
313 314 315 0
316 317 318 0
319 320 321 0
322 323 324 0
325 326 327 0
328 329 330 0
331 332 333 0
334 335 336 0
337 338 339 0
340 341 342 0
343 344 345 0
346 347 348 0
349 350 351 0
352 353 354 0
355 356 357 0
358 359 360 0
361 362 363 0
364 365 366 0
367 368 369 0
370 371 372 0
373 374 375 0
376 377 378 0
379 380 381 0
382 383 384 0
385 386 387 0
388 389 390 0
391 392 393 0
394 395 396 0
397 398 399 0
400 401 402 0
403 404 405 0
406 407 408 0
409 410 411 0
412 413 414 0
-1 -106 0
-2 -107 0
-3 -108 0
-4 -133 0
-5 -134 0
-6 -135 0
-7 -220 0
-8 -221 0
-9 -222 0
-10 -52 0
-11 -53 0
-12 -54 0
-13 -106 0
-14 -107 0
-15 -108 0
-16 -220 0
-17 -221 0
-18 -222 0
-16 -133 0
-17 -134 0
-18 -135 0
-16 -406 0
-17 -407 0
-18 -408 0
-16 -106 0
-17 -107 0
-18 -108 0
-16 -61 0
-17 -62 0
-18 -63 0
-16 -52 0
-17 -53 0
-18 -54 0
-19 -52 0
-20 -53 0
-21 -54 0
-19 -346 0
-20 -347 0
-21 -348 0
-19 -220 0
-20 -221 0
-21 -222 0
-19 -295 0
-20 -296 0
-21 -297 0
-19 -241 0
-20 -242 0
-21 -243 0
-19 -403 0
-20 -404 0
-21 -405 0
-19 -271 0
-20 -272 0
-21 -273 0
-19 -406 0
-20 -407 0
-21 -408 0
-19 -412 0
-20 -413 0
-21 -414 0
-19 -352 0
-20 -353 0
-21 -354 0
-19 -106 0
-20 -107 0
-21 -108 0
-22 -394 0
-23 -395 0
-24 -396 0
-22 -52 0
-23 -53 0
-24 -54 0
-25 -265 0
-26 -266 0
-27 -267 0
-25 -403 0
-26 -404 0
-27 -405 0
-25 -406 0
-26 -407 0
-27 -408 0
-25 -247 0
-26 -248 0
-27 -249 0
-25 -52 0
-26 -53 0
-27 -54 0
-25 -412 0
-26 -413 0
-27 -414 0
-28 -292 0
-29 -293 0
-30 -294 0
-28 -283 0
-29 -284 0
-30 -285 0
-31 -220 0
-32 -221 0
-33 -222 0
-31 -52 0
-32 -53 0
-33 -54 0
-31 -106 0
-32 -107 0
-33 -108 0
-34 -283 0
-35 -284 0
-36 -285 0
-34 -310 0
-35 -311 0
-36 -312 0
-34 -181 0
-35 -182 0
-36 -183 0
-37 -52 0
-38 -53 0
-39 -54 0
-37 -307 0
-38 -308 0
-39 -309 0
-37 -106 0
-38 -107 0
-39 -108 0
-40 -403 0
-41 -404 0
-42 -405 0
-40 -232 0
-41 -233 0
-42 -234 0
-40 -220 0
-41 -221 0
-42 -222 0
-43 -52 0
-44 -53 0
-45 -54 0
-46 -412 0
-47 -413 0
-48 -414 0
-46 -58 0
-47 -59 0
-48 -60 0
-46 -106 0
-47 -107 0
-48 -108 0
-46 -97 0
-47 -98 0
-48 -99 0
-46 -52 0
-47 -53 0
-48 -54 0
-46 -220 0
-47 -221 0
-48 -222 0
-49 -232 0
-50 -233 0
-51 -234 0
-49 -220 0
-50 -221 0
-51 -222 0
-49 -58 0
-50 -59 0
-51 -60 0
-49 -403 0
-50 -404 0
-51 -405 0
-52 -322 0
-53 -323 0
-54 -324 0
-52 -25 0
-53 -26 0
-54 -27 0
-52 -115 0
-53 -116 0
-54 -117 0
-52 -10 0
-53 -11 0
-54 -12 0
-52 -202 0
-53 -203 0
-54 -204 0
-52 -136 0
-53 -137 0
-54 -138 0
-52 -388 0
-53 -389 0
-54 -390 0
-52 -235 0
-53 -236 0
-54 -237 0
-52 -82 0
-53 -83 0
-54 -84 0
-52 -214 0
-53 -215 0
-54 -216 0
-52 -151 0
-53 -152 0
-54 -153 0
-52 -226 0
-53 -227 0
-54 -228 0
-52 -298 0
-53 -299 0
-54 -300 0
-52 -43 0
-53 -44 0
-54 -45 0
-52 -91 0
-53 -92 0
-54 -93 0
-52 -121 0
-53 -122 0
-54 -123 0
-52 -187 0
-53 -188 0
-54 -189 0
-52 -76 0
-53 -77 0
-54 -78 0
-52 -46 0
-53 -47 0
-54 -48 0
-52 -97 0
-53 -98 0
-54 -99 0
-52 -55 0
-53 -56 0
-54 -57 0
-52 -265 0
-53 -266 0
-54 -267 0
-52 -232 0
-53 -233 0
-54 -234 0
-52 -130 0
-53 -131 0
-54 -132 0
-52 -31 0
-53 -32 0
-54 -33 0
-52 -175 0
-53 -176 0
-54 -177 0
-52 -247 0
-53 -248 0
-54 -249 0
-52 -319 0
-53 -320 0
-54 -321 0
-52 -19 0
-53 -20 0
-54 -21 0
-52 -346 0
-53 -347 0
-54 -348 0
-52 -295 0
-53 -296 0
-54 -297 0
-52 -241 0
-53 -242 0
-54 -243 0
-52 -271 0
-53 -272 0
-54 -273 0
-52 -340 0
-53 -341 0
-54 -342 0
-52 -337 0
-53 -338 0
-54 -339 0
-52 -361 0
-53 -362 0
-54 -363 0
-52 -184 0
-53 -185 0
-54 -186 0
-52 -118 0
-53 -119 0
-54 -120 0
-52 -268 0
-53 -269 0
-54 -270 0
-52 -103 0
-53 -104 0
-54 -105 0
-52 -190 0
-53 -191 0
-54 -192 0
-52 -67 0
-53 -68 0
-54 -69 0
-52 -253 0
-53 -254 0
-54 -255 0
-52 -157 0
-53 -158 0
-54 -159 0
-52 -352 0
-53 -353 0
-54 -354 0
-52 -22 0
-53 -23 0
-54 -24 0
-52 -394 0
-53 -395 0
-54 -396 0
-52 -262 0
-53 -263 0
-54 -264 0
-52 -238 0
-53 -239 0
-54 -240 0
-52 -148 0
-53 -149 0
-54 -150 0
-52 -286 0
-53 -287 0
-54 -288 0
-52 -16 0
-53 -17 0
-54 -18 0
-52 -61 0
-53 -62 0
-54 -63 0
-52 -259 0
-53 -260 0
-54 -261 0
-52 -163 0
-53 -164 0
-54 -165 0
-52 -367 0
-53 -368 0
-54 -369 0
-52 -274 0
-53 -275 0
-54 -276 0
-52 -403 0
-53 -404 0
-54 -405 0
-52 -283 0
-53 -284 0
-54 -285 0
-52 -85 0
-53 -86 0
-54 -87 0
-52 -223 0
-53 -224 0
-54 -225 0
-52 -58 0
-53 -59 0
-54 -60 0
-52 -220 0
-53 -221 0
-54 -222 0
-52 -313 0
-53 -314 0
-54 -315 0
-52 -406 0
-53 -407 0
-54 -408 0
-52 -133 0
-53 -134 0
-54 -135 0
-52 -412 0
-53 -413 0
-54 -414 0
-52 -379 0
-53 -380 0
-54 -381 0
-52 -37 0
-53 -38 0
-54 -39 0
-52 -307 0
-53 -308 0
-54 -309 0
-52 -106 0
-53 -107 0
-54 -108 0
-55 -412 0
-56 -413 0
-57 -414 0
-55 -52 0
-56 -53 0
-57 -54 0
-55 -220 0
-56 -221 0
-57 -222 0
-55 -406 0
-56 -407 0
-57 -408 0
-55 -265 0
-56 -266 0
-57 -267 0
-55 -232 0
-56 -233 0
-57 -234 0
-58 -202 0
-59 -203 0
-60 -204 0
-58 -136 0
-59 -137 0
-60 -138 0
-58 -388 0
-59 -389 0
-60 -390 0
-58 -46 0
-59 -47 0
-60 -48 0
-58 -97 0
-59 -98 0
-60 -99 0
-58 -406 0
-59 -407 0
-60 -408 0
-58 -61 0
-59 -62 0
-60 -63 0
-58 -232 0
-59 -233 0
-60 -234 0
-58 -274 0
-59 -275 0
-60 -276 0
-58 -49 0
-59 -50 0
-60 -51 0
-58 -412 0
-59 -413 0
-60 -414 0
-58 -88 0
-59 -89 0
-60 -90 0
-58 -85 0
-59 -86 0
-60 -87 0
-58 -283 0
-59 -284 0
-60 -285 0
-58 -403 0
-59 -404 0
-60 -405 0
-58 -220 0
-59 -221 0
-60 -222 0
-58 -106 0
-59 -107 0
-60 -108 0
-58 -52 0
-59 -53 0
-60 -54 0
-61 -202 0
-62 -203 0
-63 -204 0
-61 -232 0
-62 -233 0
-63 -234 0
-61 -412 0
-62 -413 0
-63 -414 0
-61 -58 0
-62 -59 0
-63 -60 0
-61 -130 0
-62 -131 0
-63 -132 0
-61 -220 0
-62 -221 0
-63 -222 0
-61 -274 0
-62 -275 0
-63 -276 0
-61 -406 0
-62 -407 0
-63 -408 0
-61 -106 0
-62 -107 0
-63 -108 0
-61 -16 0
-62 -17 0
-63 -18 0
-61 -52 0
-62 -53 0
-63 -54 0
-64 -160 0
-65 -161 0
-66 -162 0
-64 -283 0
-65 -284 0
-66 -285 0
-64 -214 0
-65 -215 0
-66 -216 0
-67 -52 0
-68 -53 0
-69 -54 0
-70 -214 0
-71 -215 0
-72 -216 0
-70 -346 0
-71 -347 0
-72 -348 0
-73 -364 0
-74 -365 0
-75 -366 0
-73 -214 0
-74 -215 0
-75 -216 0
-73 -283 0
-74 -284 0
-75 -285 0
-76 -406 0
-77 -407 0
-78 -408 0
-76 -106 0
-77 -107 0
-78 -108 0
-76 -283 0
-77 -284 0
-78 -285 0
-76 -52 0
-77 -53 0
-78 -54 0
-76 -190 0
-77 -191 0
-78 -192 0
-79 -88 0
-80 -89 0
-81 -90 0
-82 -235 0
-83 -236 0
-84 -237 0
-82 -106 0
-83 -107 0
-84 -108 0
-82 -52 0
-83 -53 0
-84 -54 0
-82 -214 0
-83 -215 0
-84 -216 0
-85 -412 0
-86 -413 0
-87 -414 0
-85 -379 0
-86 -380 0
-87 -381 0
-85 -88 0
-86 -89 0
-87 -90 0
-85 -403 0
-86 -404 0
-87 -405 0
-85 -283 0
-86 -284 0
-87 -285 0
-85 -58 0
-86 -59 0
-87 -60 0
-85 -220 0
-86 -221 0
-87 -222 0
-85 -52 0
-86 -53 0
-87 -54 0
-88 -205 0
-89 -206 0
-90 -207 0
-88 -85 0
-89 -86 0
-90 -87 0
-88 -283 0
-89 -284 0
-90 -285 0
-88 -214 0
-89 -215 0
-90 -216 0
-88 -79 0
-89 -80 0
-90 -81 0
-88 -58 0
-89 -59 0
-90 -60 0
-88 -220 0
-89 -221 0
-90 -222 0
-91 -52 0
-92 -53 0
-93 -54 0
-94 -169 0
-95 -170 0
-96 -171 0
-94 -208 0
-95 -209 0
-96 -210 0
-94 -217 0
-95 -218 0
-96 -219 0
-94 -301 0
-95 -302 0
-96 -303 0
-94 -229 0
-95 -230 0
-96 -231 0
-94 -214 0
-95 -215 0
-96 -216 0
-97 -160 0
-98 -161 0
-99 -162 0
-97 -190 0
-98 -191 0
-99 -192 0
-97 -358 0
-98 -359 0
-99 -360 0
-97 -283 0
-98 -284 0
-99 -285 0
-97 -46 0
-98 -47 0
-99 -48 0
-97 -220 0
-98 -221 0
-99 -222 0
-97 -412 0
-98 -413 0
-99 -414 0
-97 -232 0
-98 -233 0
-99 -234 0
-97 -58 0
-98 -59 0
-99 -60 0
-97 -106 0
-98 -107 0
-99 -108 0
-97 -265 0
-98 -266 0
-99 -267 0
-97 -52 0
-98 -53 0
-99 -54 0
-97 -298 0
-98 -299 0
-99 -300 0
-97 -214 0
-98 -215 0
-99 -216 0
-100 -298 0
-101 -299 0
-102 -300 0
-100 -280 0
-101 -281 0
-102 -282 0
-100 -181 0
-101 -182 0
-102 -183 0
-100 -283 0
-101 -284 0
-102 -285 0
-103 -268 0
-104 -269 0
-105 -270 0
-103 -190 0
-104 -191 0
-105 -192 0
-103 -52 0
-104 -53 0
-105 -54 0
-106 -247 0
-107 -248 0
-108 -249 0
-106 -154 0
-107 -155 0
-108 -156 0
-106 -109 0
-107 -110 0
-108 -111 0
-106 -142 0
-107 -143 0
-108 -144 0
-106 -13 0
-107 -14 0
-108 -15 0
-106 -211 0
-107 -212 0
-108 -213 0
-106 -409 0
-107 -410 0
-108 -411 0
-106 -397 0
-107 -398 0
-108 -399 0
-106 -373 0
-107 -374 0
-108 -375 0
-106 -235 0
-107 -236 0
-108 -237 0
-106 -82 0
-107 -83 0
-108 -84 0
-106 -151 0
-107 -152 0
-108 -153 0
-106 -226 0
-107 -227 0
-108 -228 0
-106 -298 0
-107 -299 0
-108 -300 0
-106 -76 0
-107 -77 0
-108 -78 0
-106 -190 0
-107 -191 0
-108 -192 0
-106 -46 0
-107 -47 0
-108 -48 0
-106 -97 0
-107 -98 0
-108 -99 0
-106 -379 0
-107 -380 0
-108 -381 0
-106 -175 0
-107 -176 0
-108 -177 0
-106 -343 0
-107 -344 0
-108 -345 0
-106 -133 0
-107 -134 0
-108 -135 0
-106 -295 0
-107 -296 0
-108 -297 0
-106 -241 0
-107 -242 0
-108 -243 0
-106 -403 0
-107 -404 0
-108 -405 0
-106 -271 0
-107 -272 0
-108 -273 0
-106 -406 0
-107 -407 0
-108 -408 0
-106 -31 0
-107 -32 0
-108 -33 0
-106 -196 0
-107 -197 0
-108 -198 0
-106 -346 0
-107 -347 0
-108 -348 0
-106 -229 0
-107 -230 0
-108 -231 0
-106 -238 0
-107 -239 0
-108 -240 0
-106 -16 0
-107 -17 0
-108 -18 0
-106 -61 0
-107 -62 0
-108 -63 0
-106 -322 0
-107 -323 0
-108 -324 0
-106 -316 0
-107 -317 0
-108 -318 0
-106 -277 0
-107 -278 0
-108 -279 0
-106 -214 0
-107 -215 0
-108 -216 0
-106 -283 0
-107 -284 0
-108 -285 0
-106 -220 0
-107 -221 0
-108 -222 0
-106 -58 0
-107 -59 0
-108 -60 0
-106 -52 0
-107 -53 0
-108 -54 0
-106 -37 0
-107 -38 0
-108 -39 0
-106 -307 0
-107 -308 0
-108 -309 0
-106 -253 0
-107 -254 0
-108 -255 0
-106 -265 0
-107 -266 0
-108 -267 0
-106 -19 0
-107 -20 0
-108 -21 0
-106 -352 0
-107 -353 0
-108 -354 0
-106 -1 0
-107 -2 0
-108 -3 0
-106 -412 0
-107 -413 0
-108 -414 0
-109 -106 0
-110 -107 0
-111 -108 0
-109 -346 0
-110 -347 0
-111 -348 0
-109 -214 0
-110 -215 0
-111 -216 0
-109 -283 0
-110 -284 0
-111 -285 0
-109 -229 0
-110 -230 0
-111 -231 0
-112 -214 0
-113 -215 0
-114 -216 0
-112 -283 0
-113 -284 0
-114 -285 0
-115 -52 0
-116 -53 0
-117 -54 0
-118 -184 0
-119 -185 0
-120 -186 0
-118 -190 0
-119 -191 0
-120 -192 0
-118 -52 0
-119 -53 0
-120 -54 0
-121 -52 0
-122 -53 0
-123 -54 0
-121 -379 0
-122 -380 0
-123 -381 0
-124 -397 0
-125 -398 0
-126 -399 0
-127 -364 0
-128 -365 0
-129 -366 0
-130 -61 0
-131 -62 0
-132 -63 0
-130 -220 0
-131 -221 0
-132 -222 0
-130 -52 0
-131 -53 0
-132 -54 0
-133 -4 0
-134 -5 0
-135 -6 0
-133 -16 0
-134 -17 0
-135 -18 0
-133 -220 0
-134 -221 0
-135 -222 0
-133 -106 0
-134 -107 0
-135 -108 0
-133 -343 0
-134 -344 0
-135 -345 0
-133 -190 0
-134 -191 0
-135 -192 0
-133 -406 0
-134 -407 0
-135 -408 0
-133 -283 0
-134 -284 0
-135 -285 0
-133 -244 0
-134 -245 0
-135 -246 0
-133 -181 0
-134 -182 0
-135 -183 0
-133 -52 0
-134 -53 0
-135 -54 0
-133 -412 0
-134 -413 0
-135 -414 0
-133 -379 0
-134 -380 0
-135 -381 0
-136 -202 0
-137 -203 0
-138 -204 0
-136 -412 0
-137 -413 0
-138 -414 0
-136 -220 0
-137 -221 0
-138 -222 0
-136 -58 0
-137 -59 0
-138 -60 0
-136 -388 0
-137 -389 0
-138 -390 0
-136 -52 0
-137 -53 0
-138 -54 0
-139 -250 0
-140 -251 0
-141 -252 0
-139 -283 0
-140 -284 0
-141 -285 0
-139 -412 0
-140 -413 0
-141 -414 0
-139 -214 0
-140 -215 0
-141 -216 0
-142 -106 0
-143 -107 0
-144 -108 0
-145 -346 0
-146 -347 0
-147 -348 0
-145 -391 0
-146 -392 0
-147 -393 0
-145 -397 0
-146 -398 0
-147 -399 0
-145 -214 0
-146 -215 0
-147 -216 0
-145 -409 0
-146 -410 0
-147 -411 0
-148 -286 0
-149 -287 0
-150 -288 0
-148 -52 0
-149 -53 0
-150 -54 0
-151 -226 0
-152 -227 0
-153 -228 0
-151 -295 0
-152 -296 0
-153 -297 0
-151 -106 0
-152 -107 0
-153 -108 0
-151 -52 0
-152 -53 0
-153 -54 0
-151 -283 0
-152 -284 0
-153 -285 0
-151 -298 0
-152 -299 0
-153 -300 0
-154 -346 0
-155 -347 0
-156 -348 0
-154 -316 0
-155 -317 0
-156 -318 0
-154 -106 0
-155 -107 0
-156 -108 0
-157 -352 0
-158 -353 0
-159 -354 0
-157 -52 0
-158 -53 0
-159 -54 0
-157 -253 0
-158 -254 0
-159 -255 0
-157 -400 0
-158 -401 0
-159 -402 0
-157 -412 0
-158 -413 0
-159 -414 0
-160 -190 0
-161 -191 0
-162 -192 0
-160 -97 0
-161 -98 0
-162 -99 0
-160 -358 0
-161 -359 0
-162 -360 0
-160 -412 0
-161 -413 0
-162 -414 0
-160 -298 0
-161 -299 0
-162 -300 0
-160 -283 0
-161 -284 0
-162 -285 0
-160 -64 0
-161 -65 0
-162 -66 0
-160 -208 0
-161 -209 0
-162 -210 0
-160 -169 0
-161 -170 0
-162 -171 0
-160 -199 0
-161 -200 0
-162 -201 0
-160 -229 0
-161 -230 0
-162 -231 0
-160 -214 0
-161 -215 0
-162 -216 0
-163 -367 0
-164 -368 0
-165 -369 0
-163 -274 0
-164 -275 0
-165 -276 0
-163 -52 0
-164 -53 0
-165 -54 0
-166 -214 0
-167 -215 0
-168 -216 0
-169 -160 0
-170 -161 0
-171 -162 0
-169 -208 0
-170 -209 0
-171 -210 0
-169 -217 0
-170 -218 0
-171 -219 0
-169 -301 0
-170 -302 0
-171 -303 0
-169 -94 0
-170 -95 0
-171 -96 0
-169 -229 0
-170 -230 0
-171 -231 0
-169 -214 0
-170 -215 0
-171 -216 0
-172 -253 0
-173 -254 0
-174 -255 0
-172 -265 0
-173 -266 0
-174 -267 0
-172 -376 0
-173 -377 0
-174 -378 0
-172 -412 0
-173 -413 0
-174 -414 0
-175 -403 0
-176 -404 0
-177 -405 0
-175 -220 0
-176 -221 0
-177 -222 0
-175 -412 0
-176 -413 0
-177 -414 0
-175 -106 0
-176 -107 0
-177 -108 0
-175 -247 0
-176 -248 0
-177 -249 0
-175 -406 0
-176 -407 0
-177 -408 0
-175 -52 0
-176 -53 0
-177 -54 0
-178 -403 0
-179 -404 0
-180 -405 0
-178 -349 0
-179 -350 0
-180 -351 0
-178 -220 0
-179 -221 0
-180 -222 0
-181 -280 0
-182 -281 0
-183 -282 0
-181 -100 0
-182 -101 0
-183 -102 0
-181 -298 0
-182 -299 0
-183 -300 0
-181 -244 0
-182 -245 0
-183 -246 0
-181 -133 0
-182 -134 0
-183 -135 0
-181 -283 0
-182 -284 0
-183 -285 0
-181 -34 0
-182 -35 0
-183 -36 0
-181 -310 0
-182 -311 0
-183 -312 0
-184 -118 0
-185 -119 0
-186 -120 0
-184 -190 0
-185 -191 0
-186 -192 0
-184 -52 0
-185 -53 0
-186 -54 0
-187 -247 0
-188 -248 0
-189 -249 0
-187 -52 0
-188 -53 0
-189 -54 0
-190 -76 0
-191 -77 0
-192 -78 0
-190 -106 0
-191 -107 0
-192 -108 0
-190 -160 0
-191 -161 0
-192 -162 0
-190 -412 0
-191 -413 0
-192 -414 0
-190 -358 0
-191 -359 0
-192 -360 0
-190 -214 0
-191 -215 0
-192 -216 0
-190 -97 0
-191 -98 0
-192 -99 0
-190 -283 0
-191 -284 0
-192 -285 0
-190 -406 0
-191 -407 0
-192 -408 0
-190 -133 0
-191 -134 0
-192 -135 0
-190 -184 0
-191 -185 0
-192 -186 0
-190 -118 0
-191 -119 0
-192 -120 0
-190 -268 0
-191 -269 0
-192 -270 0
-190 -103 0
-191 -104 0
-192 -105 0
-190 -52 0
-191 -53 0
-192 -54 0
-193 -283 0
-194 -284 0
-195 -285 0
-193 -403 0
-194 -404 0
-195 -405 0
-193 -220 0
-194 -221 0
-195 -222 0
-196 -106 0
-197 -107 0
-198 -108 0
-199 -160 0
-200 -161 0
-201 -162 0
-199 -229 0
-200 -230 0
-201 -231 0
-199 -214 0
-200 -215 0
-201 -216 0
-202 -61 0
-203 -62 0
-204 -63 0
-202 -58 0
-203 -59 0
-204 -60 0
-202 -220 0
-203 -221 0
-204 -222 0
-202 -388 0
-203 -389 0
-204 -390 0
-202 -412 0
-203 -413 0
-204 -414 0
-202 -136 0
-203 -137 0
-204 -138 0
-202 -52 0
-203 -53 0
-204 -54 0
-205 -256 0
-206 -257 0
-207 -258 0
-205 -88 0
-206 -89 0
-207 -90 0
-208 -283 0
-209 -284 0
-210 -285 0
-208 -346 0
-209 -347 0
-210 -348 0
-208 -160 0
-209 -161 0
-210 -162 0
-208 -169 0
-209 -170 0
-210 -171 0
-208 -217 0
-209 -218 0
-210 -219 0
-208 -301 0
-209 -302 0
-210 -303 0
-208 -94 0
-209 -95 0
-210 -96 0
-208 -229 0
-209 -230 0
-210 -231 0
-208 -214 0
-209 -215 0
-210 -216 0
-211 -106 0
-212 -107 0
-213 -108 0
-214 -304 0
-215 -305 0
-216 -306 0
-214 -250 0
-215 -251 0
-216 -252 0
-214 -166 0
-215 -167 0
-216 -168 0
-214 -328 0
-215 -329 0
-216 -330 0
-214 -235 0
-215 -236 0
-216 -237 0
-214 -52 0
-215 -53 0
-216 -54 0
-214 -82 0
-215 -83 0
-216 -84 0
-214 -190 0
-215 -191 0
-216 -192 0
-214 -358 0
-215 -359 0
-216 -360 0
-214 -97 0
-215 -98 0
-216 -99 0
-214 -64 0
-215 -65 0
-216 -66 0
-214 -298 0
-215 -299 0
-216 -300 0
-214 -391 0
-215 -392 0
-216 -393 0
-214 -145 0
-215 -146 0
-216 -147 0
-214 -325 0
-215 -326 0
-216 -327 0
-214 -112 0
-215 -113 0
-216 -114 0
-214 -364 0
-215 -365 0
-216 -366 0
-214 -73 0
-215 -74 0
-216 -75 0
-214 -334 0
-215 -335 0
-216 -336 0
-214 -169 0
-215 -170 0
-216 -171 0
-214 -208 0
-215 -209 0
-216 -210 0
-214 -217 0
-215 -218 0
-216 -219 0
-214 -301 0
-215 -302 0
-216 -303 0
-214 -94 0
-215 -95 0
-216 -96 0
-214 -199 0
-215 -200 0
-216 -201 0
-214 -160 0
-215 -161 0
-216 -162 0
-214 -331 0
-215 -332 0
-216 -333 0
-214 -70 0
-215 -71 0
-216 -72 0
-214 -109 0
-215 -110 0
-216 -111 0
-214 -229 0
-215 -230 0
-216 -231 0
-214 -397 0
-215 -398 0
-216 -399 0
-214 -346 0
-215 -347 0
-216 -348 0
-214 -139 0
-215 -140 0
-216 -141 0
-214 -88 0
-215 -89 0
-216 -90 0
-214 -322 0
-215 -323 0
-216 -324 0
-214 -316 0
-215 -317 0
-216 -318 0
-214 -220 0
-215 -221 0
-216 -222 0
-214 -253 0
-215 -254 0
-216 -255 0
-214 -265 0
-215 -266 0
-216 -267 0
-214 -412 0
-215 -413 0
-216 -414 0
-214 -277 0
-215 -278 0
-216 -279 0
-214 -106 0
-215 -107 0
-216 -108 0
-214 -283 0
-215 -284 0
-216 -285 0
-217 -169 0
-218 -170 0
-219 -171 0
-217 -208 0
-218 -209 0
-219 -210 0
-217 -301 0
-218 -302 0
-219 -303 0
-217 -94 0
-218 -95 0
-219 -96 0
-217 -229 0
-218 -230 0
-219 -231 0
-217 -214 0
-218 -215 0
-219 -216 0
-220 -247 0
-221 -248 0
-222 -249 0
-220 -322 0
-221 -323 0
-222 -324 0
-220 -202 0
-221 -203 0
-222 -204 0
-220 -136 0
-221 -137 0
-222 -138 0
-220 -388 0
-221 -389 0
-222 -390 0
-220 -193 0
-221 -194 0
-222 -195 0
-220 -46 0
-221 -47 0
-222 -48 0
-220 -97 0
-221 -98 0
-222 -99 0
-220 -55 0
-221 -56 0
-222 -57 0
-220 -16 0
-221 -17 0
-222 -18 0
-220 -133 0
-221 -134 0
-222 -135 0
-220 -130 0
-221 -131 0
-222 -132 0
-220 -61 0
-221 -62 0
-222 -63 0
-220 -7 0
-221 -8 0
-222 -9 0
-220 -31 0
-221 -32 0
-222 -33 0
-220 -175 0
-221 -176 0
-222 -177 0
-220 -379 0
-221 -380 0
-222 -381 0
-220 -19 0
-221 -20 0
-222 -21 0
-220 -346 0
-221 -347 0
-222 -348 0
-220 -295 0
-221 -296 0
-222 -297 0
-220 -241 0
-221 -242 0
-222 -243 0
-220 -271 0
-221 -272 0
-222 -273 0
-220 -406 0
-221 -407 0
-222 -408 0
-220 -355 0
-221 -356 0
-222 -357 0
-220 -349 0
-221 -350 0
-222 -351 0
-220 -178 0
-221 -179 0
-222 -180 0
-220 -367 0
-221 -368 0
-222 -369 0
-220 -274 0
-221 -275 0
-222 -276 0
-220 -232 0
-221 -233 0
-222 -234 0
-220 -40 0
-221 -41 0
-222 -42 0
-220 -49 0
-221 -50 0
-222 -51 0
-220 -88 0
-221 -89 0
-222 -90 0
-220 -253 0
-221 -254 0
-222 -255 0
-220 -265 0
-221 -266 0
-222 -267 0
-220 -412 0
-221 -413 0
-222 -414 0
-220 -214 0
-221 -215 0
-222 -216 0
-220 -403 0
-221 -404 0
-222 -405 0
-220 -85 0
-221 -86 0
-222 -87 0
-220 -283 0
-221 -284 0
-222 -285 0
-220 -223 0
-221 -224 0
-222 -225 0
-220 -106 0
-221 -107 0
-222 -108 0
-220 -58 0
-221 -59 0
-222 -60 0
-220 -313 0
-221 -314 0
-222 -315 0
-220 -52 0
-221 -53 0
-222 -54 0
-223 -220 0
-224 -221 0
-225 -222 0
-223 -52 0
-224 -53 0
-225 -54 0
-226 -151 0
-227 -152 0
-228 -153 0
-226 -295 0
-227 -296 0
-228 -297 0
-226 -106 0
-227 -107 0
-228 -108 0
-226 -52 0
-227 -53 0
-228 -54 0
-226 -283 0
-227 -284 0
-228 -285 0
-226 -298 0
-227 -299 0
-228 -300 0
-229 -169 0
-230 -170 0
-231 -171 0
-229 -208 0
-230 -209 0
-231 -210 0
-229 -217 0
-230 -218 0
-231 -219 0
-229 -301 0
-230 -302 0
-231 -303 0
-229 -94 0
-230 -95 0
-231 -96 0
-229 -199 0
-230 -200 0
-231 -201 0
-229 -160 0
-230 -161 0
-231 -162 0
-229 -106 0
-230 -107 0
-231 -108 0
-229 -346 0
-230 -347 0
-231 -348 0
-229 -109 0
-230 -110 0
-231 -111 0
-229 -283 0
-230 -284 0
-231 -285 0
-229 -214 0
-230 -215 0
-231 -216 0
-232 -97 0
-233 -98 0
-234 -99 0
-232 -61 0
-233 -62 0
-234 -63 0
-232 -55 0
-233 -56 0
-234 -57 0
-232 -265 0
-233 -266 0
-234 -267 0
-232 -295 0
-233 -296 0
-234 -297 0
-232 -52 0
-233 -53 0
-234 -54 0
-232 -406 0
-233 -407 0
-234 -408 0
-232 -412 0
-233 -413 0
-234 -414 0
-232 -403 0
-233 -404 0
-234 -405 0
-232 -49 0
-233 -50 0
-234 -51 0
-232 -58 0
-233 -59 0
-234 -60 0
-232 -367 0
-233 -368 0
-234 -369 0
-232 -274 0
-233 -275 0
-234 -276 0
-232 -40 0
-233 -41 0
-234 -42 0
-232 -220 0
-233 -221 0
-234 -222 0
-235 -283 0
-236 -284 0
-237 -285 0
-235 -106 0
-236 -107 0
-237 -108 0
-235 -82 0
-236 -83 0
-237 -84 0
-235 -214 0
-236 -215 0
-237 -216 0
-235 -52 0
-236 -53 0
-237 -54 0
-238 -52 0
-239 -53 0
-240 -54 0
-238 -106 0
-239 -107 0
-240 -108 0
-241 -19 0
-242 -20 0
-243 -21 0
-241 -52 0
-242 -53 0
-243 -54 0
-241 -412 0
-242 -413 0
-243 -414 0
-241 -346 0
-242 -347 0
-243 -348 0
-241 -220 0
-242 -221 0
-243 -222 0
-241 -295 0
-242 -296 0
-243 -297 0
-241 -403 0
-242 -404 0
-243 -405 0
-241 -271 0
-242 -272 0
-243 -273 0
-241 -406 0
-242 -407 0
-243 -408 0
-241 -106 0
-242 -107 0
-243 -108 0
-244 -283 0
-245 -284 0
-246 -285 0
-244 -133 0
-245 -134 0
-246 -135 0
-244 -181 0
-245 -182 0
-246 -183 0
-247 -220 0
-248 -221 0
-249 -222 0
-247 -265 0
-248 -266 0
-249 -267 0
-247 -25 0
-248 -26 0
-249 -27 0
-247 -412 0
-248 -413 0
-249 -414 0
-247 -403 0
-248 -404 0
-249 -405 0
-247 -106 0
-248 -107 0
-249 -108 0
-247 -187 0
-248 -188 0
-249 -189 0
-247 -175 0
-248 -176 0
-249 -177 0
-247 -406 0
-248 -407 0
-249 -408 0
-247 -52 0
-248 -53 0
-249 -54 0
-250 -304 0
-251 -305 0
-252 -306 0
-250 -139 0
-251 -140 0
-252 -141 0
-250 -214 0
-251 -215 0
-252 -216 0
-253 -403 0
-254 -404 0
-255 -405 0
-253 -406 0
-254 -407 0
-255 -408 0
-253 -322 0
-254 -323 0
-255 -324 0
-253 -52 0
-254 -53 0
-255 -54 0
-253 -172 0
-254 -173 0
-255 -174 0
-253 -157 0
-254 -158 0
-255 -159 0
-253 -400 0
-254 -401 0
-255 -402 0
-253 -376 0
-254 -377 0
-255 -378 0
-253 -352 0
-254 -353 0
-255 -354 0
-253 -220 0
-254 -221 0
-255 -222 0
-253 -412 0
-254 -413 0
-255 -414 0
-253 -214 0
-254 -215 0
-255 -216 0
-253 -265 0
-254 -266 0
-255 -267 0
-253 -106 0
-254 -107 0
-255 -108 0
-256 -205 0
-257 -206 0
-258 -207 0
-259 -52 0
-260 -53 0
-261 -54 0
-262 -52 0
-263 -53 0
-264 -54 0
-265 -25 0
-266 -26 0
-267 -27 0
-265 -247 0
-266 -248 0
-267 -249 0
-265 -403 0
-266 -404 0
-267 -405 0
-265 -322 0
-266 -323 0
-267 -324 0
-265 -97 0
-266 -98 0
-267 -99 0
-265 -52 0
-266 -53 0
-267 -54 0
-265 -406 0
-266 -407 0
-267 -408 0
-265 -55 0
-266 -56 0
-267 -57 0
-265 -232 0
-266 -233 0
-267 -234 0
-265 -172 0
-266 -173 0
-267 -174 0
-265 -376 0
-266 -377 0
-267 -378 0
-265 -220 0
-266 -221 0
-267 -222 0
-265 -412 0
-266 -413 0
-267 -414 0
-265 -214 0
-266 -215 0
-267 -216 0
-265 -253 0
-266 -254 0
-267 -255 0
-265 -106 0
-266 -107 0
-267 -108 0
-268 -103 0
-269 -104 0
-270 -105 0
-268 -190 0
-269 -191 0
-270 -192 0
-268 -52 0
-269 -53 0
-270 -54 0
-271 -19 0
-272 -20 0
-273 -21 0
-271 -52 0
-272 -53 0
-273 -54 0
-271 -412 0
-272 -413 0
-273 -414 0
-271 -346 0
-272 -347 0
-273 -348 0
-271 -220 0
-272 -221 0
-273 -222 0
-271 -295 0
-272 -296 0
-273 -297 0
-271 -241 0
-272 -242 0
-273 -243 0
-271 -403 0
-272 -404 0
-273 -405 0
-271 -406 0
-272 -407 0
-273 -408 0
-271 -106 0
-272 -107 0
-273 -108 0
-274 -61 0
-275 -62 0
-276 -63 0
-274 -232 0
-275 -233 0
-276 -234 0
-274 -58 0
-275 -59 0
-276 -60 0
-274 -220 0
-275 -221 0
-276 -222 0
-274 -163 0
-275 -164 0
-276 -165 0
-274 -367 0
-275 -368 0
-276 -369 0
-274 -52 0
-275 -53 0
-276 -54 0
-277 -406 0
-278 -407 0
-279 -408 0
-277 -343 0
-278 -344 0
-279 -345 0
-277 -289 0
-278 -290 0
-279 -291 0
-277 -214 0
-278 -215 0
-279 -216 0
-277 -106 0
-278 -107 0
-279 -108 0
-277 -283 0
-278 -284 0
-279 -285 0
-280 -298 0
-281 -299 0
-282 -300 0
-280 -100 0
-281 -101 0
-282 -102 0
-280 -181 0
-281 -182 0
-282 -183 0
-280 -283 0
-281 -284 0
-282 -285 0
-283 -328 0
-284 -329 0
-285 -330 0
-283 -139 0
-284 -140 0
-285 -141 0
-283 -235 0
-284 -236 0
-285 -237 0
-283 -151 0
-284 -152 0
-285 -153 0
-283 -226 0
-284 -227 0
-285 -228 0
-283 -295 0
-284 -296 0
-285 -297 0
-283 -193 0
-284 -194 0
-285 -195 0
-283 -76 0
-284 -77 0
-285 -78 0
-283 -406 0
-284 -407 0
-285 -408 0
-283 -412 0
-284 -413 0
-285 -414 0
-283 -190 0
-284 -191 0
-285 -192 0
-283 -358 0
-284 -359 0
-285 -360 0
-283 -97 0
-284 -98 0
-285 -99 0
-283 -208 0
-284 -209 0
-285 -210 0
-283 -343 0
-284 -344 0
-285 -345 0
-283 -160 0
-284 -161 0
-285 -162 0
-283 -64 0
-284 -65 0
-285 -66 0
-283 -364 0
-284 -365 0
-285 -366 0
-283 -73 0
-284 -74 0
-285 -75 0
-283 -289 0
-284 -290 0
-285 -291 0
-283 -325 0
-284 -326 0
-285 -327 0
-283 -280 0
-284 -281 0
-285 -282 0
-283 -100 0
-284 -101 0
-285 -102 0
-283 -28 0
-284 -29 0
-285 -30 0
-283 -112 0
-284 -113 0
-285 -114 0
-283 -292 0
-284 -293 0
-285 -294 0
-283 -370 0
-284 -371 0
-285 -372 0
-283 -298 0
-284 -299 0
-285 -300 0
-283 -109 0
-284 -110 0
-285 -111 0
-283 -244 0
-284 -245 0
-285 -246 0
-283 -133 0
-284 -134 0
-285 -135 0
-283 -229 0
-284 -230 0
-285 -231 0
-283 -34 0
-284 -35 0
-285 -36 0
-283 -310 0
-284 -311 0
-285 -312 0
-283 -181 0
-284 -182 0
-285 -183 0
-283 -346 0
-284 -347 0
-285 -348 0
-283 -88 0
-284 -89 0
-285 -90 0
-283 -322 0
-284 -323 0
-285 -324 0
-283 -316 0
-284 -317 0
-285 -318 0
-283 -277 0
-284 -278 0
-285 -279 0
-283 -214 0
-284 -215 0
-285 -216 0
-283 -106 0
-284 -107 0
-285 -108 0
-283 -403 0
-284 -404 0
-285 -405 0
-283 -85 0
-284 -86 0
-285 -87 0
-283 -52 0
-284 -53 0
-285 -54 0
-283 -220 0
-284 -221 0
-285 -222 0
-283 -58 0
-284 -59 0
-285 -60 0
-286 -148 0
-287 -149 0
-288 -150 0
-286 -52 0
-287 -53 0
-288 -54 0
-289 -343 0
-290 -344 0
-291 -345 0
-289 -277 0
-290 -278 0
-291 -279 0
-289 -283 0
-290 -284 0
-291 -285 0
-292 -28 0
-293 -29 0
-294 -30 0
-292 -370 0
-293 -371 0
-294 -372 0
-292 -283 0
-293 -284 0
-294 -285 0
-295 -151 0
-296 -152 0
-297 -153 0
-295 -226 0
-296 -227 0
-297 -228 0
-295 -283 0
-296 -284 0
-297 -285 0
-295 -298 0
-296 -299 0
-297 -300 0
-295 -232 0
-296 -233 0
-297 -234 0
-295 -19 0
-296 -20 0
-297 -21 0
-295 -52 0
-296 -53 0
-297 -54 0
-295 -412 0
-296 -413 0
-297 -414 0
-295 -346 0
-296 -347 0
-297 -348 0
-295 -220 0
-296 -221 0
-297 -222 0
-295 -241 0
-296 -242 0
-297 -243 0
-295 -403 0
-296 -404 0
-297 -405 0
-295 -271 0
-296 -272 0
-297 -273 0
-295 -406 0
-296 -407 0
-297 -408 0
-295 -106 0
-296 -107 0
-297 -108 0
-298 -328 0
-299 -329 0
-300 -330 0
-298 -151 0
-299 -152 0
-300 -153 0
-298 -226 0
-299 -227 0
-300 -228 0
-298 -295 0
-299 -296 0
-300 -297 0
-298 -106 0
-299 -107 0
-300 -108 0
-298 -52 0
-299 -53 0
-300 -54 0
-298 -97 0
-299 -98 0
-300 -99 0
-298 -160 0
-299 -161 0
-300 -162 0
-298 -214 0
-299 -215 0
-300 -216 0
-298 -280 0
-299 -281 0
-300 -282 0
-298 -100 0
-299 -101 0
-300 -102 0
-298 -181 0
-299 -182 0
-300 -183 0
-298 -283 0
-299 -284 0
-300 -285 0
-301 -169 0
-302 -170 0
-303 -171 0
-301 -208 0
-302 -209 0
-303 -210 0
-301 -217 0
-302 -218 0
-303 -219 0
-301 -94 0
-302 -95 0
-303 -96 0
-301 -229 0
-302 -230 0
-303 -231 0
-301 -214 0
-302 -215 0
-303 -216 0
-304 -250 0
-305 -251 0
-306 -252 0
-304 -214 0
-305 -215 0
-306 -216 0
-307 -52 0
-308 -53 0
-309 -54 0
-307 -37 0
-308 -38 0
-309 -39 0
-307 -106 0
-308 -107 0
-309 -108 0
-310 -283 0
-311 -284 0
-312 -285 0
-310 -34 0
-311 -35 0
-312 -36 0
-310 -181 0
-311 -182 0
-312 -183 0
-313 -220 0
-314 -221 0
-315 -222 0
-313 -52 0
-314 -53 0
-315 -54 0
-316 -154 0
-317 -155 0
-318 -156 0
-316 -397 0
-317 -398 0
-318 -399 0
-316 -346 0
-317 -347 0
-318 -348 0
-316 -283 0
-317 -284 0
-318 -285 0
-316 -214 0
-317 -215 0
-318 -216 0
-316 -106 0
-317 -107 0
-318 -108 0
-316 -322 0
-317 -323 0
-318 -324 0
-319 -52 0
-320 -53 0
-321 -54 0
-322 -52 0
-323 -53 0
-324 -54 0
-322 -403 0
-323 -404 0
-324 -405 0
-322 -412 0
-323 -413 0
-324 -414 0
-322 -253 0
-323 -254 0
-324 -255 0
-322 -265 0
-323 -266 0
-324 -267 0
-322 -220 0
-323 -221 0
-324 -222 0
-322 -406 0
-323 -407 0
-324 -408 0
-322 -283 0
-323 -284 0
-324 -285 0
-322 -214 0
-323 -215 0
-324 -216 0
-322 -106 0
-323 -107 0
-324 -108 0
-322 -316 0
-323 -317 0
-324 -318 0
-325 -409 0
-326 -410 0
-327 -411 0
-325 -214 0
-326 -215 0
-327 -216 0
-325 -397 0
-326 -398 0
-327 -399 0
-325 -283 0
-326 -284 0
-327 -285 0
-325 -346 0
-326 -347 0
-327 -348 0
-328 -298 0
-329 -299 0
-330 -300 0
-328 -283 0
-329 -284 0
-330 -285 0
-328 -214 0
-329 -215 0
-330 -216 0
-331 -397 0
-332 -398 0
-333 -399 0
-331 -214 0
-332 -215 0
-333 -216 0
-334 -358 0
-335 -359 0
-336 -360 0
-334 -412 0
-335 -413 0
-336 -414 0
-334 -346 0
-335 -347 0
-336 -348 0
-334 -214 0
-335 -215 0
-336 -216 0
-337 -52 0
-338 -53 0
-339 -54 0
-340 -52 0
-341 -53 0
-342 -54 0
-343 -277 0
-344 -278 0
-345 -279 0
-343 -283 0
-344 -284 0
-345 -285 0
-343 -289 0
-344 -290 0
-345 -291 0
-343 -106 0
-344 -107 0
-345 -108 0
-343 -406 0
-344 -407 0
-345 -408 0
-343 -133 0
-344 -134 0
-345 -135 0
-346 -154 0
-347 -155 0
-348 -156 0
-346 -391 0
-347 -392 0
-348 -393 0
-346 -145 0
-347 -146 0
-348 -147 0
-346 -409 0
-347 -410 0
-348 -411 0
-346 -382 0
-347 -383 0
-348 -384 0
-346 -334 0
-347 -335 0
-348 -336 0
-346 -325 0
-347 -326 0
-348 -327 0
-346 -19 0
-347 -20 0
-348 -21 0
-346 -52 0
-347 -53 0
-348 -54 0
-346 -220 0
-347 -221 0
-348 -222 0
-346 -295 0
-347 -296 0
-348 -297 0
-346 -241 0
-347 -242 0
-348 -243 0
-346 -403 0
-347 -404 0
-348 -405 0
-346 -271 0
-347 -272 0
-348 -273 0
-346 -406 0
-347 -407 0
-348 -408 0
-346 -412 0
-347 -413 0
-348 -414 0
-346 -106 0
-347 -107 0
-348 -108 0
-346 -208 0
-347 -209 0
-348 -210 0
-346 -397 0
-347 -398 0
-348 -399 0
-346 -70 0
-347 -71 0
-348 -72 0
-346 -316 0
-347 -317 0
-348 -318 0
-346 -109 0
-347 -110 0
-348 -111 0
-346 -229 0
-347 -230 0
-348 -231 0
-346 -283 0
-347 -284 0
-348 -285 0
-346 -214 0
-347 -215 0
-348 -216 0
-349 -403 0
-350 -404 0
-351 -405 0
-349 -178 0
-350 -179 0
-351 -180 0
-349 -220 0
-350 -221 0
-351 -222 0
-352 -157 0
-353 -158 0
-354 -159 0
-352 -52 0
-353 -53 0
-354 -54 0
-352 -376 0
-353 -377 0
-354 -378 0
-352 -253 0
-353 -254 0
-354 -255 0
-352 -412 0
-353 -413 0
-354 -414 0
-352 -19 0
-353 -20 0
-354 -21 0
-352 -106 0
-353 -107 0
-354 -108 0
-355 -220 0
-356 -221 0
-357 -222 0
-355 -403 0
-356 -404 0
-357 -405 0
-358 -334 0
-359 -335 0
-360 -336 0
-358 -160 0
-359 -161 0
-360 -162 0
-358 -412 0
-359 -413 0
-360 -414 0
-358 -190 0
-359 -191 0
-360 -192 0
-358 -214 0
-359 -215 0
-360 -216 0
-358 -97 0
-359 -98 0
-360 -99 0
-358 -283 0
-359 -284 0
-360 -285 0
-361 -52 0
-362 -53 0
-363 -54 0
-364 -214 0
-365 -215 0
-366 -216 0
-364 -73 0
-365 -74 0
-366 -75 0
-364 -283 0
-365 -284 0
-366 -285 0
-364 -127 0
-365 -128 0
-366 -129 0
-367 -232 0
-368 -233 0
-369 -234 0
-367 -220 0
-368 -221 0
-369 -222 0
-367 -163 0
-368 -164 0
-369 -165 0
-367 -274 0
-368 -275 0
-369 -276 0
-367 -52 0
-368 -53 0
-369 -54 0
-370 -292 0
-371 -293 0
-372 -294 0
-370 -283 0
-371 -284 0
-372 -285 0
-373 -106 0
-374 -107 0
-375 -108 0
-376 -172 0
-377 -173 0
-378 -174 0
-376 -265 0
-377 -266 0
-378 -267 0
-376 -253 0
-377 -254 0
-378 -255 0
-376 -352 0
-377 -353 0
-378 -354 0
-376 -412 0
-377 -413 0
-378 -414 0
-379 -85 0
-380 -86 0
-381 -87 0
-379 -106 0
-380 -107 0
-381 -108 0
-379 -220 0
-380 -221 0
-381 -222 0
-379 -121 0
-380 -122 0
-381 -123 0
-379 -52 0
-380 -53 0
-381 -54 0
-379 -133 0
-380 -134 0
-381 -135 0
-379 -412 0
-380 -413 0
-381 -414 0
-382 -397 0
-383 -398 0
-384 -399 0
-382 -346 0
-383 -347 0
-384 -348 0
-385 -403 0
-386 -404 0
-387 -405 0
-388 -202 0
-389 -203 0
-390 -204 0
-388 -412 0
-389 -413 0
-390 -414 0
-388 -136 0
-389 -137 0
-390 -138 0
-388 -220 0
-389 -221 0
-390 -222 0
-388 -58 0
-389 -59 0
-390 -60 0
-388 -52 0
-389 -53 0
-390 -54 0
-391 -346 0
-392 -347 0
-393 -348 0
-391 -214 0
-392 -215 0
-393 -216 0
-391 -145 0
-392 -146 0
-393 -147 0
-391 -397 0
-392 -398 0
-393 -399 0
-394 -22 0
-395 -23 0
-396 -24 0
-394 -52 0
-395 -53 0
-396 -54 0
-397 -106 0
-398 -107 0
-399 -108 0
-397 -145 0
-398 -146 0
-399 -147 0
-397 -124 0
-398 -125 0
-399 -126 0
-397 -391 0
-398 -392 0
-399 -393 0
-397 -325 0
-398 -326 0
-399 -327 0
-397 -316 0
-398 -317 0
-399 -318 0
-397 -382 0
-398 -383 0
-399 -384 0
-397 -331 0
-398 -332 0
-399 -333 0
-397 -346 0
-398 -347 0
-399 -348 0
-397 -214 0
-398 -215 0
-399 -216 0
-400 -253 0
-401 -254 0
-402 -255 0
-400 -157 0
-401 -158 0
-402 -159 0
-400 -412 0
-401 -413 0
-402 -414 0
-403 -25 0
-404 -26 0
-405 -27 0
-403 -322 0
-404 -323 0
-405 -324 0
-403 -253 0
-404 -254 0
-405 -255 0
-403 -265 0
-404 -266 0
-405 -267 0
-403 -247 0
-404 -248 0
-405 -249 0
-403 -193 0
-404 -194 0
-405 -195 0
-403 -175 0
-404 -176 0
-405 -177 0
-403 -385 0
-404 -386 0
-405 -387 0
-403 -19 0
-404 -20 0
-405 -21 0
-403 -346 0
-404 -347 0
-405 -348 0
-403 -295 0
-404 -296 0
-405 -297 0
-403 -241 0
-404 -242 0
-405 -243 0
-403 -271 0
-404 -272 0
-405 -273 0
-403 -406 0
-404 -407 0
-405 -408 0
-403 -106 0
-404 -107 0
-405 -108 0
-403 -349 0
-404 -350 0
-405 -351 0
-403 -178 0
-404 -179 0
-405 -180 0
-403 -40 0
-404 -41 0
-405 -42 0
-403 -232 0
-404 -233 0
-405 -234 0
-403 -355 0
-404 -356 0
-405 -357 0
-403 -49 0
-404 -50 0
-405 -51 0
-403 -412 0
-404 -413 0
-405 -414 0
-403 -283 0
-404 -284 0
-405 -285 0
-403 -85 0
-404 -86 0
-405 -87 0
-403 -220 0
-404 -221 0
-405 -222 0
-403 -52 0
-404 -53 0
-405 -54 0
-403 -58 0
-404 -59 0
-405 -60 0
-406 -25 0
-407 -26 0
-408 -27 0
-406 -253 0
-407 -254 0
-408 -255 0
-406 -322 0
-407 -323 0
-408 -324 0
-406 -277 0
-407 -278 0
-408 -279 0
-406 -76 0
-407 -77 0
-408 -78 0
-406 -283 0
-407 -284 0
-408 -285 0
-406 -58 0
-407 -59 0
-408 -60 0
-406 -55 0
-407 -56 0
-408 -57 0
-406 -265 0
-407 -266 0
-408 -267 0
-406 -232 0
-407 -233 0
-408 -234 0
-406 -343 0
-407 -344 0
-408 -345 0
-406 -175 0
-407 -176 0
-408 -177 0
-406 -247 0
-407 -248 0
-408 -249 0
-406 -190 0
-407 -191 0
-408 -192 0
-406 -133 0
-407 -134 0
-408 -135 0
-406 -19 0
-407 -20 0
-408 -21 0
-406 -412 0
-407 -413 0
-408 -414 0
-406 -346 0
-407 -347 0
-408 -348 0
-406 -220 0
-407 -221 0
-408 -222 0
-406 -295 0
-407 -296 0
-408 -297 0
-406 -241 0
-407 -242 0
-408 -243 0
-406 -403 0
-407 -404 0
-408 -405 0
-406 -271 0
-407 -272 0
-408 -273 0
-406 -106 0
-407 -107 0
-408 -108 0
-406 -16 0
-407 -17 0
-408 -18 0
-406 -61 0
-407 -62 0
-408 -63 0
-406 -52 0
-407 -53 0
-408 -54 0
-409 -106 0
-410 -107 0
-411 -108 0
-409 -145 0
-410 -146 0
-411 -147 0
-409 -325 0
-410 -326 0
-411 -327 0
-409 -346 0
-410 -347 0
-411 -348 0
-412 -25 0
-413 -26 0
-414 -27 0
-412 -247 0
-413 -248 0
-414 -249 0
-412 -322 0
-413 -323 0
-414 -324 0
-412 -202 0
-413 -203 0
-414 -204 0
-412 -136 0
-413 -137 0
-414 -138 0
-412 -388 0
-413 -389 0
-414 -390 0
-412 -160 0
-413 -161 0
-414 -162 0
-412 -334 0
-413 -335 0
-414 -336 0
-412 -139 0
-413 -140 0
-414 -141 0
-412 -190 0
-413 -191 0
-414 -192 0
-412 -358 0
-413 -359 0
-414 -360 0
-412 -283 0
-413 -284 0
-414 -285 0
-412 -55 0
-413 -56 0
-414 -57 0
-412 -46 0
-413 -47 0
-414 -48 0
-412 -97 0
-413 -98 0
-414 -99 0
-412 -61 0
-413 -62 0
-414 -63 0
-412 -232 0
-413 -233 0
-414 -234 0
-412 -85 0
-413 -86 0
-414 -87 0
-412 -175 0
-413 -176 0
-414 -177 0
-412 -295 0
-413 -296 0
-414 -297 0
-412 -241 0
-413 -242 0
-414 -243 0
-412 -271 0
-413 -272 0
-414 -273 0
-412 -406 0
-413 -407 0
-414 -408 0
-412 -346 0
-413 -347 0
-414 -348 0
-412 -172 0
-413 -173 0
-414 -174 0
-412 -157 0
-413 -158 0
-414 -159 0
-412 -400 0
-413 -401 0
-414 -402 0
-412 -376 0
-413 -377 0
-414 -378 0
-412 -403 0
-413 -404 0
-414 -405 0
-412 -58 0
-413 -59 0
-414 -60 0
-412 -220 0
-413 -221 0
-414 -222 0
-412 -253 0
-413 -254 0
-414 -255 0
-412 -265 0
-413 -266 0
-414 -267 0
-412 -214 0
-413 -215 0
-414 -216 0
-412 -52 0
-413 -53 0
-414 -54 0
-412 -133 0
-413 -134 0
-414 -135 0
-412 -379 0
-413 -380 0
-414 -381 0
-412 -352 0
-413 -353 0
-414 -354 0
-412 -19 0
-413 -20 0
-414 -21 0
-412 -106 0
-413 -107 0
-414 -108 0

